%nproc=16
%mem=60GB
# B3LYP/genecp em=GD3BJ int=fine
scrf=(smd,solvent=acetone)

Template

0 1
 Co        -1.2491826005       -0.5154173857       -0.3423445370
 N         -1.5862124902        1.3091015154       -0.1042070285
 O         -0.8006564213        2.3355879233       -0.5397329976
 C         -2.6873225041        1.5890391422        0.5168524305
 C         -3.1620790941        2.9763145833        0.7849569619
 H         -2.5514054065        3.6848877200        0.2312553708
 H         -3.0790825251        3.1933135609        1.8488313646
 H         -4.2051338025        3.0834890086        0.4974359477
 N         -2.8420218045       -0.7019261100        0.6521448883
 O         -3.3708131475       -1.8416088681        0.9672387741
 C         -3.4226325423        0.4268893103        0.9504376406
 C         -4.7224367641        0.5180334803        1.6841338929
 H         -5.0327587866       -0.4871386182        1.9624023852
 H         -5.4918661676        0.9640018524        1.0554070921
 H         -4.6144876016        1.1246538128        2.5808420518
 N         -1.0731646822       -2.3349387226       -0.8072888515
 O         -1.7813626317       -3.3765653038       -0.2798805937
 C         -0.1810546609       -2.5833229767       -1.7114294341
 C          0.1115909634       -3.9471629383       -2.2381358272
 H          0.1324201657       -3.9378268804       -3.3251989808
 H         -0.6457937558       -4.6437920697       -1.8877563254
 H          1.0859971340       -4.2780218970       -1.8817374593
 N          0.1655245852       -0.3087134017       -1.5808171130
 O          0.6902742766        0.8302208432       -1.9069682873
 C          0.5304425615       -1.4146870042       -2.1676550105
 C          1.5945053382       -1.4749822323       -3.2169710030
 H          1.1690599170       -1.7266992449       -4.1878507938
 H          2.3422813000       -2.2229218504       -2.9630630146
 H          2.0665570614       -0.4966461596       -3.2831775378
 H         -0.0852927230        1.8695596122       -1.1354727798
 H         -2.4947791089       -2.9189398937        0.3123046037
 C         -0.0849489572       -0.7379127208        1.3151311547
 H         -0.8023668458       -0.7330747004        2.1340397992
 H          0.3385855195       -1.7302927011        1.1659929670
 C          0.9282164759        0.2912971079        1.4406839168
 C          2.1551223038        0.0742875393        0.8947168446
 H          2.3073973657       -0.8888689440        0.4215414155
 C          0.5913567544        1.5087655423        2.2524367105
 H         -0.2164608258        1.2828006203        2.9441363310
 H          1.4592326829        1.8412325968        2.8161853965
 H          0.2657599725        2.3257599151        1.6122589220
 C          3.3328002784        0.9142881629        0.8931633927
 C          4.5854384205        0.2892954394        0.8089951837
 C          3.3013532350        2.3122290922        0.9314294556
 C          5.7532375339        1.0238273210        0.8101883338
 H          4.6314338630       -0.7893878068        0.7596863401
 C          4.4735056922        3.0450584584        0.9167899924
 H          2.3583972772        2.8302822953        0.9250930254
 C          5.7034253094        2.4088159458        0.8699943426
 H          6.7073212784        0.5194472923        0.7580083275
 H          4.4271108761        4.1243574561        0.9383721534
 H          6.6160756063        2.9863401099        0.8665067289

-H -C -N -O -S -Br -F -Cl 0
6-31G(d)
****
-Co 0
lanl2dz
****

-Co 0
lanl2dz

