%nproc=16
%mem=60GB
# B3LYP/genecp em=GD3BJ int=fine
scrf=(smd,solvent=acetone)

Template

0 1
 Co        -1.0382769969       -0.6571573293       -0.5908953157
 N         -0.7194561067        1.1791530244       -0.3143144188
 O          0.1062831916        1.9732129163       -1.0519921525
 C         -1.3901286341        1.7067051226        0.6576951826
 C         -1.3201097322        3.1469838311        1.0338931978
 H         -2.3177123624        3.5794863364        1.0685024396
 H         -0.7107775099        3.6830781369        0.3112358189
 H         -0.8715621172        3.2486122784        2.0203478234
 N         -2.1029731749       -0.4644739219        0.9459365458
 O         -2.7592306065       -1.4366166615        1.5001759976
 C         -2.2070544678        0.7613156608        1.3788490078
 C         -3.0699252538        1.1567125204        2.5342877458
 H         -2.4730529808        1.6217522797        3.3163223372
 H         -3.5499526491        0.2638306803        2.9299851989
 H         -3.8367561454        1.8630374265        2.2199641066
 N         -1.5913161548       -2.3963042891       -1.0246861340
 O         -2.3092537066       -3.2345697746       -0.2236886525
 C         -1.2616354219       -2.7967310940       -2.2104220813
 C         -1.6363874661       -4.1247668937       -2.7736713374
 H         -2.3627693544       -4.6048739319       -2.1231076873
 H         -0.7522709215       -4.7567843386       -2.8415625030
 H         -2.0506442431       -4.0110179316       -3.7725126224
 N         -0.2012284800       -0.7550615619       -2.2843035530
 O          0.5249480818        0.1903313904       -2.7961137272
 C         -0.4610191928       -1.8479742725       -2.9458377688
 C          0.0418948009       -2.1159186070       -4.3284015465
 H          0.6098805384       -3.0434374355       -4.3566440805
 H          0.6833890161       -1.2897767946       -4.6285556611
 H         -0.7853095747       -2.1954155276       -5.0323967235
 H          0.3994607303        1.3628167424       -1.8379629951
 H         -2.5692364036       -2.6459595084        0.5896986764
 C          0.5562101049       -1.4037492725        0.4178704319
 H          0.1254233724       -2.1988244245        1.0255072959
 H          1.1816312301       -1.7980564153       -0.3828657301
 C          1.2341613752       -0.3987258582        1.2154829936
 C          2.1779598641        0.3895915281        0.6396650459
 H          2.3248025975        0.2776249029       -0.4274674363
 C          0.8395309909       -0.2986894419        2.6613424220
 H          1.4421558340       -0.9842045854        3.2562710241
 H          0.9814868115        0.7081413155        3.0436340572
 H         -0.2001736516       -0.5874562910        2.7851169776
 C          2.9698642299        1.4441455753        1.2426414239
 C          3.4736805725        1.3861630308        2.5449937461
 C          3.2714813334        2.5699351757        0.4663440001
 C          4.2256213055        2.4277127755        3.0570573139
 H          3.3144511037        0.5039077924        3.1428420832
 C          4.0062955265        3.6154332483        0.9881586473
 H          2.8935343395        2.6244135882       -0.5437138573
 C          4.4856114220        3.5506238076        2.2882435889
 H          4.6145919338        2.3618804395        4.0630155566
 H          4.2145242151        4.4828822913        0.3785490178
 H          5.0674573867        4.3650162688        2.6942345534

-H -C -N -O -S -Br -F -Cl 0
6-31G(d)
****
-Co 0
lanl2dz
****

-Co 0
lanl2dz

