%nproc=16
%mem=60GB
# B3LYP/genecp em=GD3BJ int=fine
scrf=(smd,solvent=acetone)

Template

0 1
 Co        -1.2666736960       -0.4070884133       -0.2515833691
 N         -1.7341252119        1.4114018047       -0.2446152819
 O         -0.9643757954        2.4411630853       -0.6992945960
 C         -2.8995153328        1.6711190524        0.2559226637
 C         -3.4826369891        3.0402045724        0.3452679722
 H         -4.4911410023        3.0497555109       -0.0614992434
 H         -2.8563895712        3.7396253192       -0.2026693645
 H         -3.5342774443        3.3514170551        1.3874412158
 N         -2.8995685587       -0.5958646068        0.6596743479
 O         -3.3690429030       -1.7289815050        1.0710012606
 C         -3.5883536554        0.5074763678        0.7571114608
 C         -4.9567863453        0.5731080192        1.3567740295
 H         -4.9761970394        1.2701607044        2.1920319753
 H         -5.2263485852       -0.4200949689        1.7099967511
 H         -5.6882548218        0.8979443708        0.6182448410
 N         -0.9202963650       -2.2357109944       -0.4698454953
 O         -1.5468859297       -3.2593078114        0.1826367797
 C         -0.0107143137       -2.5229891634       -1.3451860723
 C          0.3786032585       -3.9158232321       -1.7084420034
 H          0.4409845290       -4.0228943762       -2.7885308913
 H         -0.3521576953       -4.6133542900       -1.3069062766
 H          1.3536296617       -4.1520369193       -1.2847669957
 N          0.1779290075       -0.2313699572       -1.4672736931
 O          0.6349864803        0.9000846114       -1.9044311744
 C          0.6176743162       -1.3666803476       -1.9359895029
 C          1.6843282559       -1.4667429876       -2.9804668214
 H          2.4581392428       -2.1697375105       -2.6807651095
 H          2.1206576827       -0.4792627196       -3.1200909519
 H          1.2653493886       -1.7998565157       -3.9297767141
 H         -0.2011251813        1.9690745739       -1.2242123918
 H         -2.3462685778       -2.8056421791        0.6503989555
 C         -0.2943259356       -0.3092832388        1.5195891659
 H         -0.7049201648        0.5854896257        1.9860058507
 H         -0.6084800713       -1.2109866374        2.0430441800
 C          1.1369242028       -0.2329466135        1.3034536224
 C          1.7158762585        0.9920416629        1.1758445087
 H          1.0582458137        1.8462566852        1.2826827607
 C          1.9079669100       -1.5221694037        1.3077517749
 H          2.0966316142       -1.8648191739        0.2921518439
 H          2.8623305883       -1.3922557243        1.8120349800
 H          1.3393673973       -2.2964678713        1.8161954609
 C          3.0979801575        1.3536309584        0.9532616381
 C          3.5177973032        2.6244222555        1.3734591438
 C          4.0355952981        0.5382919307        0.3107824969
 C          4.8211819655        3.0418358748        1.2004712539
 H          2.8048347276        3.2795779186        1.8530278736
 C          5.3368705809        0.9658917217        0.1249806338
 H          3.7379059490       -0.4167105258       -0.0845171207
 C          5.7414438695        2.2108850914        0.5784826542
 H          5.1234344059        4.0208226806        1.5434011152
 H          6.0424730806        0.3230719891       -0.3815453263
 H          6.7612627253        2.5371390902        0.4373079391

-H -C -N -O -S -Br -F -Cl 0
6-31G(d)
****
-Co 0
lanl2dz
****

-Co 0
lanl2dz

