%nproc=16
%mem=60GB
# B3LYP/genecp em=GD3BJ int=fine
scrf=(smd,solvent=acetone)

Template

0 1
 Co        -1.3192095871       -0.2850513267       -0.2469578301
 N         -2.2672977838        1.3283841926       -0.3657344769
 O         -1.8430221787        2.4717774661       -0.9752245959
 C         -3.4424089551        1.3112850112        0.1780966767
 C         -4.3760236868        2.4731851009        0.1775993666
 H         -5.3606982414        2.1688885199       -0.1691139429
 H         -3.9832530684        3.2565414883       -0.4654270759
 H         -4.4780892220        2.8628825358        1.1892062907
 N         -2.8192985049       -0.8299324515        0.7454023111
 O         -2.9528054698       -2.0101951469        1.2569947622
 C         -3.7719835967        0.0582123550        0.8104681412
 C         -5.0830395729       -0.1869840192        1.4863599125
 H         -5.9015700003       -0.1504269259        0.7688875641
 H         -5.2634901104        0.5619131345        2.2546507705
 H         -5.0565762407       -1.1742072401        1.9429528439
 N         -0.4888882403       -1.9702749987       -0.3414316018
 O         -0.8051253054       -3.0671227754        0.4102484932
 C          0.4670155508       -2.0654222172       -1.2085611316
 C          1.2438979832       -3.3125254132       -1.4585860396
 H          0.8005074887       -4.1372853305       -0.9066705488
 H          2.2727258045       -3.1746743450       -1.1297520790
 H          1.2565013155       -3.5444833207       -2.5211511936
 N          0.0229040350        0.1719911826       -1.5108722631
 O          0.1684576539        1.3531075459       -2.0294058747
 C          0.7502366782       -0.8353753726       -1.9048850407
 C          1.8063317975       -0.7324641007       -2.9582028548
 H          1.5645664961       -1.3655635726       -3.8108464658
 H          2.7726693824       -1.0389930587       -2.5629877344
 H          1.8653493752        0.3019088472       -3.2900433298
 H         -0.9781287621        2.1858770390       -1.4693195467
 H         -1.6910341832       -2.8055973301        0.8708606780
 C         -0.3888326839        0.2080943762        1.4818206226
 H         -1.0806715934        0.8849665504        1.9812874883
 H         -0.3184264101       -0.7446367263        2.0054613267
 C          0.9001980966        0.8127839353        1.2073082981
 C          2.0117292721        0.0291744028        1.2052007766
 H          1.8709811335       -1.0133485375        1.4663060625
 C          0.9362568501        2.2990052467        1.0077836054
 H          1.8507643347        2.7221285194        1.4151866393
 H          0.8852233766        2.5407522118       -0.0526510112
 H          0.0805023542        2.7640722377        1.4899078954
 C          3.3909550318        0.3940934114        0.9600064718
 C          3.7802139848        1.4338480533        0.1086762217
 C          4.3983103506       -0.3634199528        1.5740316151
 C          5.1179838130        1.7198361705       -0.0904989365
 H          3.0359079986        1.9884027763       -0.4364613875
 C          5.7321282980       -0.0645086276        1.3846710571
 H          4.1178011198       -1.1830675283        2.2202440097
 C          6.0994503853        0.9848152467        0.5549095343
 H          5.3974098262        2.5224982213       -0.7576770223
 H          6.4914669903       -0.6525644994        1.8795834399
 H          7.1428490312        1.2186751547        0.4033928580

-H -C -N -O -S -Br -F -Cl 0
6-31G(d)
****
-Co 0
lanl2dz
****

-Co 0
lanl2dz

