%nproc=16
%mem=60GB
# B3LYP/genecp em=GD3BJ int=fine
scrf=(smd,solvent=acetone)

Template

0 1
 Co        -1.2032598291       -0.1314961984       -0.6887682535
 N         -2.5920875355        1.0773551093       -0.2897180079
 O         -3.2380129217        1.8900354688       -1.1757042743
 C         -2.9475301482        1.1038228508        0.9544405066
 C         -4.0436908249        1.9613136927        1.4892875441
 H         -4.7334828202        1.3673053005        2.0842705585
 H         -4.5754257479        2.4300273894        0.6653100524
 H         -3.6256067400        2.7376134893        2.1281794061
 N         -1.2346302622       -0.4230093679        1.1754333398
 O         -0.4665491357       -1.2604576892        1.7961100782
 C         -2.1716929564        0.2325593492        1.8027745843
 C         -2.4212623366        0.1045690897        3.2719900733
 H         -1.6464224615       -0.5297882042        3.6980074942
 H         -3.3931566280       -0.3488364284        3.4626227424
 H         -2.3959858776        1.0804677211        3.7521442391
 N         -0.0329991622       -1.5352060502       -1.0992886378
 O          0.7018335162       -2.2607341993       -0.2075236361
 C          0.0451557519       -1.8338617479       -2.3567795815
 C          0.8786861437       -2.9441126699       -2.9002491560
 H          0.2824621993       -3.5813652442       -3.5493106324
 H          1.2850283332       -3.5318835535       -2.0811311460
 H          1.6988944658       -2.5358299262       -3.4884797925
 N         -1.3802182989       -0.0410252377       -2.5670893489
 O         -2.1228582406        0.8219462165       -3.1864211330
 C         -0.7377212767       -0.9751503654       -3.2107545139
 C         -0.7828906571       -1.1358224595       -4.6966953377
 H          0.2193013974       -1.0891196221       -5.1177753269
 H         -1.3868848977       -0.3319543865       -5.1126784146
 H         -1.2281995131       -2.0914093852       -4.9696745960
 H         -2.8637827666        1.6038635083       -2.0972002779
 H          0.3562112396       -1.9443727893        0.7186035044
 C          0.1866766454        1.3526512489       -0.6194297458
 H          0.2303667710        1.6970096610       -1.6514941076
 H         -0.2855426600        2.0920425258        0.0263308503
 C          1.4669560963        0.9040418974       -0.1090458378
 C          1.7263898327        1.0323773329        1.2195492190
 H          0.9557307061        1.4992137168        1.8212758612
 C          2.4817778349        0.4043275682       -1.0977094238
 H          3.4781460055        0.7368366826       -0.8169734622
 H          2.4860571489       -0.6822053961       -1.1368932291
 H          2.2484179127        0.7756199306       -2.0923851003
 C          2.9218418544        0.6960661836        1.9631206257
 C          3.7802973229       -0.3562703788        1.6297556818
 C          3.2193518517        1.4482978084        3.1080692463
 C          4.9017504223       -0.6209085939        2.3935946814
 H          3.5435868160       -1.0000956738        0.8006406954
 C          4.3484863466        1.1913700086        3.8582671020
 H          2.5577876665        2.2538334055        3.3937202559
 C          5.2004721149        0.1568130080        3.5006877823
 H          5.5478522650       -1.4441682679        2.1249405641
 H          4.5651181440        1.7928535626        4.7293868260
 H          6.0824804211       -0.0488270104        4.0891495562

-H -C -N -O -S -Br -F -Cl 0
6-31G(d)
****
-Co 0
lanl2dz
****

-Co 0
lanl2dz

