%nproc=16
%mem=60GB
# B3LYP/genecp em=GD3BJ int=fine
scrf=(smd,solvent=acetone)

Template

0 1
 Co        -1.0132881003       -0.6058312341       -0.7244829529
 N         -0.7341688922        1.2333048584       -0.4698208456
 O         -0.2154593748        2.1064462121       -1.3807292129
 C         -1.1231987167        1.6864182577        0.6777357043
 C         -1.0538281398        3.1211662218        1.0739707615
 H         -0.2471512103        3.2624511071        1.7918933414
 H         -1.9849850349        3.4334662359        1.5399830866
 H         -0.8544330635        3.7323516505        0.1973862755
 N         -1.5521175370       -0.5397709589        1.0699909486
 O         -1.9307973266       -1.5758422786        1.7516173291
 C         -1.6044807760        0.6624616382        1.5713055281
 C         -2.0841093882        0.9575141542        2.9560913181
 H         -2.2864158464        0.0147753788        3.4602098286
 H         -2.9989781971        1.5482639270        2.9321319513
 H         -1.3293047621        1.5111575770        3.5102342766
 N         -1.5611765242       -2.3764345638       -1.0489966754
 O         -1.9142861135       -3.2977190707       -0.1055522409
 C         -1.6119686900       -2.7140125513       -2.2974666947
 C         -2.0570516257       -4.0521690396       -2.7794479590
 H         -1.2051601016       -4.5989657173       -3.1806274431
 H         -2.7947015989       -3.9446273381       -3.5710949624
 H         -2.4806006068       -4.6161717523       -1.9524062275
 N         -0.7725818155       -0.5926242497       -2.6031982099
 O         -0.3286639006        0.4255441739       -3.2727723380
 C         -1.1674310172       -1.6814433228       -3.2015691205
 C         -1.1428066646       -1.8640402744       -4.6854870595
 H         -2.1500980338       -2.0037289960       -5.0752662746
 H         -0.5445356414       -2.7320390603       -4.9546870936
 H         -0.7090697204       -0.9733206405       -5.1355645425
 H         -0.1624660821        1.5547983716       -2.2561309084
 H         -1.9491450361       -2.7531614556        0.7743663833
 C          0.9101662689       -1.1528908510       -0.3446362012
 H          0.8284524402       -2.2250899814       -0.1690164701
 H          1.3974557513       -0.9289953914       -1.2934409390
 C          1.5335335620       -0.4658115582        0.7730476388
 C          2.1884220381        0.7033836639        0.5536039438
 H          2.1332702827        1.1129653925       -0.4474808200
 C          1.4291409680       -1.1193468052        2.1205508175
 H          2.2323926417       -1.8449948274        2.2446800372
 H          1.4921248313       -0.3887623229        2.9219506763
 H          0.4890432830       -1.6565501216        2.2069933932
 C          2.9048153448        1.5458252019        1.4907066100
 C          2.8967634876        2.9289422342        1.2661089690
 C          3.6306435206        1.0620271382        2.5830483795
 C          3.5360381558        3.7948937826        2.1298335823
 H          2.3609942215        3.3158747032        0.4113403379
 C          4.2849057872        1.9320552872        3.4361740594
 H          3.7211679838        0.0001553876        2.7399657300
 C          4.2296226712        3.3001406704        3.2247063291
 H          3.5026858869        4.8593299240        1.9474616101
 H          4.8461116855        1.5389020401        4.2715857966
 H          4.7353668448        3.9759194255        3.8984339369

-H -C -N -O -S -Br -F -Cl 0
6-31G(d)
****
-Co 0
lanl2dz
****

-Co 0
lanl2dz

