%nproc=16
%mem=60GB
# B3LYP/genecp em=GD3BJ int=fine
scrf=(smd,solvent=acetone)

Template

0 1
 Co        -1.0142336998       -0.5974473709       -0.7360851798
 N         -0.7603713112        1.2457108471       -0.4867166518
 O         -0.2899102215        2.1297095953       -1.4134775043
 C         -1.1165865316        1.6895454017        0.6750491953
 C         -1.0613553237        3.1244415151        1.0730318761
 H         -0.2546167008        3.2735863931        1.7891126392
 H         -1.9945489134        3.4247717791        1.5432948282
 H         -0.8742825011        3.7395954472        0.1965815402
 N         -1.4932174932       -0.5442236380        1.0765235267
 O         -1.8311920415       -1.5879157866        1.7678878850
 C         -1.5469922700        0.6556929945        1.5829513557
 C         -1.9785346410        0.9399929796        2.9855649487
 H         -2.1608331402       -0.0066419963        3.4899624363
 H         -2.8940846074        1.5298255791        2.9983087888
 H         -1.2050055203        1.4907315572        3.5165702641
 N         -1.5399079458       -2.3784230819       -1.0442575780
 O         -1.8482093975       -3.3064307696       -0.0916847747
 C         -1.6261067745       -2.7154405055       -2.2909950821
 C         -2.0648712944       -4.0603103808       -2.7598988158
 H         -2.4584589104       -4.6291215971       -1.9213854142
 H         -1.2160813446       -4.5957788399       -3.1824510764
 H         -2.8243218320       -3.9642911740       -3.5321137557
 N         -0.8345319554       -0.5794492240       -2.6207054172
 O         -0.4299234152        0.4468246395       -3.3023282485
 C         -1.2285191239       -1.6747828512       -3.2075394374
 C         -1.2472106550       -1.8562101241       -4.6916784400
 H         -0.6455838735       -2.7156847786       -4.9799786206
 H         -0.8400714354       -0.9592600909       -5.1540357576
 H         -2.2640331347       -2.0095885277       -5.0503885124
 H         -0.2531394177        1.5795807027       -2.2904161534
 H         -1.8635155194       -2.7632922371        0.7897265361
 C          0.9369702367       -1.0905435522       -0.4342990636
 H          0.8989478203       -2.1737566562       -0.3224865952
 H          1.3922463887       -0.7921406268       -1.3784675470
 C          1.5638706136       -0.4487557010        0.7083909030
 C          2.1773651327        0.7514298368        0.5437502225
 H          2.0857916521        1.2172372070       -0.4298178526
 C          1.5101136525       -1.1817882458        2.0172532697
 H          1.5835801040       -0.4983789297        2.8583239783
 H          0.5811765572       -1.7389855862        2.0984310156
 H          2.3280675504       -1.8991730159        2.0759519726
 C          2.8933502276        1.5576388083        1.5127017920
 C          2.8418708663        2.9508911697        1.3728827505
 C          3.6603925897        1.0306934282        2.5558695565
 C          3.4774900567        3.7818023513        2.2729860498
 H          2.2766364103        3.3730248076        0.5545209684
 C          4.3104006438        1.8665881015        3.4455698404
 H          3.7857478262       -0.0355072286        2.6447220125
 C          4.2107444073        3.2426982146        3.3199846319
 H          3.4101410180        4.8538538115        2.1563980276
 H          4.9031826234        1.4404042937        4.2420575419
 H          4.7130308754        3.8912352523        4.0224322907

-H -C -N -O -S -Br -F -Cl 0
6-31G(d)
****
-Co 0
lanl2dz
****

-Co 0
lanl2dz

