%nproc=16
%mem=60GB
# B3LYP/genecp em=GD3BJ int=fine
scrf=(smd,solvent=acetone)

Template

0 1
 Co        -1.2617935427       -0.4253063717       -0.2649088808
 N         -1.6821500822        1.4040405527       -0.2264193766
 O         -0.8929818029        2.4204769107       -0.6776236751
 C         -2.8323741719        1.6866451563        0.2963283725
 C         -3.3764159845        3.0694137188        0.4162643135
 H         -4.3918004897        3.1122326692        0.0293442067
 H         -2.7416818673        3.7596694396       -0.1335478673
 H         -3.3995684328        3.3665301138        1.4635828307
 N         -2.8886142613       -0.5860037879        0.6625877172
 O         -3.3837178955       -1.7131572979        1.0599672952
 C         -3.5453454645        0.5338348340        0.7887353726
 C         -4.9027492581        0.6264452006        1.4095075575
 H         -4.8927592540        1.3153773699        2.2515984192
 H         -5.1911941716       -0.3635275232        1.7568288447
 H         -5.6370353665        0.9762006423        0.6852507914
 N         -0.9605686048       -2.2588106072       -0.5068805663
 O         -1.6010541030       -3.2738847199        0.1453210902
 C         -0.0669583222       -2.5580211393       -1.3943893503
 C          0.2907617019       -3.9556774885       -1.7705246748
 H          1.2596376084       -4.2168319609       -1.3474139073
 H          0.3520015357       -4.0549584792       -2.8512765769
 H         -0.4556702427       -4.6401816740       -1.3753603025
 N          0.1712180316       -0.2697823932       -1.4966796077
 O          0.6470841592        0.8555834548       -1.9295894447
 C          0.5779019912       -1.4099264531       -1.9835732006
 C          1.6241632160       -1.5240050853       -3.0472281852
 H          2.3954960580       -2.2350582067       -2.7598859850
 H          2.0689745508       -0.5419010838       -3.1974739898
 H          1.1839539946       -1.8548403981       -3.9876476493
 H         -0.1498938272        1.9374579686       -1.2201395781
 H         -2.3880696590       -2.8073141300        0.6220665512
 C         -0.2721625116       -0.3772046533        1.4980592666
 H         -0.6974027473        0.4874768836        2.0062826134
 H         -0.5598678882       -1.3063929061        1.9875897120
 C          1.1548797710       -0.2581421416        1.2720961293
 C          1.7046519408        0.9841211639        1.1971795723
 H          1.0295952372        1.8180011402        1.3470833105
 C          1.9560376828       -1.5275050207        1.2119397401
 H          2.1303253413       -1.8275119244        0.1803869100
 H          2.9181100530       -1.3932505954        1.7000740876
 H          1.4169965406       -2.3334479023        1.7032035793
 C          3.0785385748        1.3848832682        0.9890413141
 C          3.4790737573        2.6330313155        1.4879088221
 C          4.0247936607        0.6283782306        0.2902324725
 C          4.7744015182        3.0825393142        1.3359698512
 H          2.7582009860        3.2433416612        2.0127095550
 C          5.3177157784        1.0890831729        0.1258812876
 H          3.7387883444       -0.3031558059       -0.1655692311
 C          5.7043359198        2.3087679787        0.6572094576
 H          5.0626330360        4.0422509603        1.7400297342
 H          6.0308395871        0.4926101752       -0.4248623330
 H          6.7178069252        2.6605637756        0.5325837240

-H -C -N -O -S -Br -F -Cl 0
6-31G(d)
****
-Co 0
lanl2dz
****

-Co 0
lanl2dz

