%nproc=16
%mem=60GB
# B3LYP/genecp em=GD3BJ int=fine
scrf=(smd,solvent=acetone)

Template

0 1
 Co        -1.0559013244       -0.6606295479       -0.5533182975
 N         -0.7721786814        1.1824728578       -0.2802634351
 O          0.0948695467        1.9741909844       -0.9713952197
 C         -1.5146800597        1.7174652564        0.6338451532
 C         -1.4875838409        3.1644889020        0.9898817160
 H         -2.4462732020        3.6262760040        0.7590975163
 H         -0.7028617692        3.6625700850        0.4267744139
 H         -1.3032870803        3.2832619498        2.0550103580
 N         -2.2371128741       -0.4539187686        0.8968087663
 O         -2.9288333659       -1.4224168323        1.4133224104
 C         -2.3766801167        0.7761894174        1.3066795611
 C         -3.3240462347        1.1817842850        2.3902888595
 H         -4.0262826946        1.9306552375        2.0287157957
 H         -2.7820405736        1.5987034044        3.2373122425
 H         -3.8739919684        0.3015622078        2.7173492208
 N         -1.5664667205       -2.4086723967       -1.0026779284
 O         -2.3483648703       -3.2365384764       -0.2527892695
 C         -1.1414155656       -2.8241419121       -2.1523965223
 C         -1.4680975099       -4.1602408940       -2.7265607688
 H         -0.5801446918       -4.7904689788       -2.7172025344
 H         -1.8030800148       -4.0601189794       -3.7561389145
 H         -2.2423982354       -4.6344171552       -2.1290603634
 N         -0.0826586971       -0.7801735398       -2.1687831342
 O          0.6843827898        0.1582721487       -2.6306966808
 C         -0.2837561376       -1.8840242955       -2.8326119197
 C          0.3349935503       -2.1718353707       -4.1632468532
 H          0.9904763474       -1.3438184975       -4.4255837818
 H         -0.4299156751       -2.2753047238       -4.9315015188
 H          0.9135192563       -3.0925907132       -4.1258467567
 H          0.4631220350        1.3487921754       -1.7120369776
 H         -2.6699297312       -2.6391525831        0.5319671464
 C          0.4597114196       -1.3827896359        0.5834052833
 H         -0.0346719059       -2.0858104592        1.2530110572
 H          1.0901651246       -1.8927156187       -0.1447684427
 C          1.1610614760       -0.3295796488        1.2930145702
 C          2.1640356922        0.3436873502        0.6713964038
 H          2.3349555248        0.1103222596       -0.3723788499
 C          0.7195341285       -0.0485331318        2.7009563605
 H          0.8869726625        0.9908805516        2.9686468861
 H         -0.3350803127       -0.2837931932        2.8129028813
 H          1.2718075236       -0.6808932306        3.3952814332
 C          2.9997569262        1.4105411067        1.1847945493
 C          3.4362499056        1.4859201621        2.5107671844
 C          3.4224340515        2.4050804475        0.2936058475
 C          4.2366716916        2.5319688732        2.9317232784
 H          3.1865082089        0.6998204971        3.2038390280
 C          4.2055811084        3.4574559025        0.7226032521
 H          3.1027970850        2.3540312851       -0.7364577982
 C          4.6145233413        3.5282980345        2.0462010184
 H          4.5713063440        2.5689839208        3.9584797070
 H          4.5066489912        4.2235651878        0.0226662948
 H          5.2334978087        4.3477462172        2.3808246061

-H -C -N -O -S -Br -F -Cl 0
6-31G(d)
****
-Co 0
lanl2dz
****

-Co 0
lanl2dz

