%nproc=16
%mem=60GB
# B3LYP/genecp em=GD3BJ int=fine
scrf=(smd,solvent=acetone)

Template

0 1
 Co        -1.1590592404       -0.2065267239       -0.7449410583
 N         -2.3577791420        1.1646243133       -0.2532036175
 O         -3.0085393772        2.0115675893       -1.1044401652
 C         -2.5457845760        1.2965314695        1.0204961636
 C         -3.4565493756        2.3094457163        1.6268066438
 H         -4.1263424902        1.8368839473        2.3414112337
 H         -4.0338638544        2.7959833997        0.8448140181
 H         -2.8721621474        3.0613026931        2.1549140517
 N         -1.0163729251       -0.4232366614        1.1311640837
 O         -0.2960093322       -1.3328912143        1.7089286595
 C         -1.7805913858        0.3747173245        1.8234965274
 C         -1.8591659475        0.3466784919        3.3167059781
 H         -1.6838892907        1.3378836268        3.7289358164
 H         -1.1002989384       -0.3396381761        3.6873164005
 H         -2.8381420465        0.0023601161        3.6481945160
 N         -0.1799354605       -1.7314712258       -1.2057223309
 O          0.5594726213       -2.4981450489       -0.3542893891
 C         -0.2463824478       -2.0731753453       -2.4528315938
 C          0.4395952750       -3.2659166969       -3.0260157574
 H          1.2670388514       -2.9446080461       -3.6568435492
 H         -0.2489094991       -3.8440677684       -3.6372654245
 H          0.8292661059       -3.8845328538       -2.2216236552
 N         -1.5415214107       -0.1773708375       -2.5914818147
 O         -2.2876163768        0.7139033150       -3.1623715186
 C         -1.0418099031       -1.1802896376       -3.2585111998
 C         -1.2602000951       -1.3879723926       -4.7231668301
 H         -0.3088903871       -1.4735503199       -5.2439155399
 H         -1.8122594474       -0.5355646667       -5.1139773745
 H         -1.8365903704       -2.2942420585       -4.9043580412
 H         -2.7950550447        1.6343391220       -2.0431045423
 H          0.3233458406       -2.1243437163        0.5901796417
 C          0.3877226316        1.1000077226       -0.9750979882
 H          0.5468309100        1.1297000464       -2.0516885201
 H         -0.0465839693        2.0312821232       -0.6138271697
 C          1.5725476629        0.7075405890       -0.2373395378
 C          1.7303048223        1.1537974594        1.0379087277
 H          0.9627775286        1.8208979151        1.4131226063
 C          2.6100674408       -0.1003818165       -0.9617948388
 H          2.5313268362        0.0698516929       -2.0328693846
 H          3.6076290160        0.1764427692       -0.6309349963
 H          2.4717837959       -1.1644134312       -0.7818375039
 C          2.8070187071        0.9189374606        1.9750156176
 C          3.5855232536       -0.2429195334        1.9977458480
 C          3.0596734308        1.8967407358        2.9478513785
 C          4.5902215777       -0.4006588118        2.9341178982
 H          3.3744714779       -1.0453923040        1.3128984657
 C          4.0736847951        1.7421647430        3.8705243700
 H          2.4570160459        2.7939686917        2.9592079606
 C          4.8497111000        0.5923643928        3.8648908773
 H          5.1746109284       -1.3094459811        2.9403187748
 H          4.2589388321        2.5151185511        4.6024657315
 H          5.6410612675        0.4669909403        4.5891351010

-H -C -N -O -S -Br -F -Cl 0
6-31G(d)
****
-Co 0
lanl2dz
****

-Co 0
lanl2dz

