%nproc=16
%mem=60GB
# B3LYP/genecp em=GD3BJ int=fine
scrf=(smd,solvent=acetone)

Template

0 1
 Co        -1.2917606375       -0.0653483758       -0.4318208820
 N         -2.8478749042        0.9785966659       -0.5168576095
 O         -3.1643091469        1.8694618185       -1.4997905899
 C         -3.6845526313        0.7959983319        0.4534798283
 C         -4.9996198076        1.4892098601        0.5603845597
 H         -5.2009463777        2.0337544688       -0.3584330680
 H         -4.9772257030        2.1925485531        1.3912439084
 H         -5.7938010616        0.7698162829        0.7459663204
 N         -2.0336046549       -0.6128063370        1.2203031430
 O         -1.4634464377       -1.4432749056        2.0378673728
 C         -3.2204921362       -0.1291619392        1.4588436527
 C         -4.0239538340       -0.4728723023        2.6722646755
 H         -3.4323174011       -1.1342011336        3.3021218638
 H         -4.9471333704       -0.9793897198        2.3946481569
 H         -4.2777220283        0.4256820363        3.2309414809
 N          0.1007525508       -1.3334862833       -0.4560384156
 O          0.4907470487       -2.1236417218        0.5833613332
 C          0.7001459358       -1.4609279822       -1.5951220868
 C          1.8060189488       -2.4273726312       -1.8472032555
 H          1.6485779801       -2.9537850383       -2.7851847535
 H          1.8624863947       -3.1374292931       -1.0260801514
 H          2.7523377365       -1.8920920841       -1.9086725943
 N         -0.7113490274        0.2591417195       -2.1889490426
 O         -1.2344959987        1.1512703870       -2.9720494934
 C          0.2211522292       -0.5511374909       -2.6069350226
 C          0.7699037946       -0.5270288741       -3.9977809755
 H          1.8503834992       -0.4023963789       -3.9808627963
 H          0.3167417750        0.3041963811       -4.5344079732
 H          0.5365103468       -1.4533002034       -4.5212543562
 H         -2.4266913625        1.7289567478       -2.2153761924
 H         -0.2258467444       -1.9460877754        1.3122509418
 C         -0.2708746841        1.5003316409        0.3593463157
 H         -0.5797388429        2.3453469674       -0.2550134372
 H         -0.6776552866        1.5613000948        1.3686291494
 C          1.1667241788        1.3008470812        0.3460296752
 C          1.7575681899        0.6149277926        1.3574915446
 H          1.1032594788        0.1767866598        2.1008646319
 C          1.9239618694        1.8860514624       -0.8116955666
 H          2.1942945471        2.9181424365       -0.5907290746
 H          2.8324591146        1.3271484994       -1.0170848167
 H          1.2992764774        1.8962504731       -1.7001262445
 C          3.1618315050        0.2999745528        1.5391851495
 C          4.1990944827        1.1820663259        1.2251944413
 C          3.4939405139       -0.9452189732        2.0866143851
 C          5.5181047905        0.8195879176        1.4288416281
 H          3.9704551129        2.1709370489        0.8628183710
 C          4.8125950161       -1.3101372744        2.2696067773
 H          2.7005681280       -1.6337437008        2.3369664922
 C          5.8322217608       -0.4292664577        1.9400155154
 H          6.3073663382        1.5178182163        1.1898546422
 H          5.0496506049       -2.2818746649        2.6782225599
 H          6.8638485762       -0.7109763187        2.0916985041

-H -C -N -O -S -Br -F -Cl 0
6-31G(d)
****
-Co 0
lanl2dz
****

-Co 0
lanl2dz

