%nproc=16
%mem=60GB
# B3LYP/genecp em=GD3BJ int=fine
scrf=(smd,solvent=acetone)

Template

0 1
 Co        -1.0837319132       -0.6352605907       -0.5230013995
 N         -0.9084726974        1.2038634410       -0.1516934177
 O         -0.0759705081        2.0830816049       -0.7789599779
 C         -1.7192446028        1.6509149452        0.7532760035
 C         -1.8169595736        3.0861630077        1.1486889523
 H         -2.7615184150        3.5027388136        0.8007976641
 H         -0.9990891063        3.6434013063        0.6988136668
 H         -1.7841492895        3.1864217956        2.2308867513
 N         -2.3046308950       -0.5711448886        0.9055179522
 O         -2.9438622286       -1.6031905369        1.3594563775
 C         -2.5315176292        0.6275616499        1.3656491091
 C         -3.5266600220        0.9201803925        2.4431547401
 H         -4.0722313628        0.0054577308        2.6660938811
 H         -4.2257307479        1.6911826948        2.1256961348
 H         -3.0256671836        1.2589842252        3.3487635353
 N         -1.5038038909       -2.3746226674       -1.0885371827
 O         -2.2747166399       -3.2769383094       -0.4166687206
 C         -1.0259887794       -2.7021077614       -2.2460995139
 C         -1.2794005655       -4.0127648856       -2.9095310173
 H         -0.3645569921       -4.6032277221       -2.9176287526
 H         -1.5958250397       -3.8624491626       -3.9389569674
 H         -2.0449872702       -4.5565724711       -2.3623122183
 N         -0.0586001729       -0.6166729493       -2.1112498719
 O          0.6779260977        0.3782931630       -2.4944150139
 C         -0.1882691238       -1.6897016153       -2.8411935799
 C          0.4865463797       -1.8747050757       -4.1630773518
 H          1.1017389681       -2.7721848335       -4.1576134469
 H          1.1147769166       -1.0068339087       -4.3536671339
 H         -0.2467652197       -1.9635429692       -4.9633251626
 H          0.3732386867        1.5183788613       -1.5207518317
 H         -2.6283905102       -2.7474389266        0.4018118593
 C          0.4162985834       -1.3631793254        0.6220206964
 H         -0.0863509083       -2.0543015016        1.2970969221
 H          1.0412285421       -1.8895908042       -0.0987472529
 C          1.1163920288       -0.2933398415        1.3044824732
 C          2.1817358372        0.2885420007        0.6895590268
 H          2.4542550258       -0.1130074519       -0.2789700901
 C          0.6623531818        0.0578793281        2.6925180052
 H          1.5158299388        0.2859315350        3.3260170865
 H          0.0008196590        0.9219642993        2.6777274406
 H          0.1086554751       -0.7710744933        3.1258227437
 C          3.0576119342        1.3468122396        1.1422640303
 C          4.3587654061        1.3855846067        0.6201347343
 C          2.6841816203        2.3546819032        2.0371426827
 C          5.2573245243        2.3576801131        1.0082339743
 H          4.6613900127        0.6282852727       -0.0888297864
 C          3.5822578263        3.3366382910        2.4116062745
 H          1.6757545247        2.3976967503        2.4091624576
 C          4.8745142103        3.3378400749        1.9121110633
 H          6.2583436472        2.3592245316        0.6015627560
 H          3.2709317679        4.1110801766        3.0977296225
 H          5.5746109890        4.1029287321        2.2135526681

-H -C -N -O -S -Br -F -Cl 0
6-31G(d)
****
-Co 0
lanl2dz
****

-Co 0
lanl2dz

