%nproc=16
%mem=60GB
# B3LYP/genecp em=GD3BJ int=fine
scrf=(smd,solvent=acetone)

Template

0 1
 Co        -1.3256043081       -0.2026236727       -0.2412136957
 N         -2.4582963939        1.2780077194       -0.4498328536
 O         -2.1751839318        2.4220192101       -1.1360259721
 C         -3.6209986883        1.1557341127        0.1071261586
 C         -4.6925473724        2.1890323053        0.0334899576
 H         -4.8368839410        2.6395008877        1.0142242797
 H         -5.6331558997        1.7380548985       -0.2738058530
 H         -4.4053032659        2.9636583807       -0.6728013242
 N         -2.7325739150       -0.8397585660        0.8294246062
 O         -2.7099747034       -1.9783304781        1.4432204376
 C         -3.7887987744       -0.0753137048        0.8391293039
 C         -5.0522067797       -0.4244547320        1.5585897538
 H         -4.8985860382       -1.3615792935        2.0897160561
 H         -5.8768914666       -0.5454275353        0.8576792556
 H         -5.3152370066        0.3551039949        2.2704641713
 N         -0.3090181401       -1.7862738018       -0.2385638104
 O         -0.4788113136       -2.8511110423        0.6000931796
 C          0.6219837353       -1.8424249991       -1.1354241076
 C          1.5254669633       -3.0116681612       -1.3281158082
 H          2.5421591308       -2.7385912791       -1.0501564737
 H          1.5305928482       -3.3188762292       -2.3714944217
 H          1.1948840428       -3.8367712104       -0.7026913453
 N         -0.0769243925        0.3062102652       -1.5703546163
 O         -0.0694708612        1.4607825131       -2.1651751658
 C          0.7451712387       -0.6417705062       -1.9235490129
 C          1.7540613346       -0.4953796629       -3.0171533389
 H          2.7604584196       -0.6408869067       -2.6295976902
 H          1.6698320302        0.5058101815       -3.4349682516
 H          1.5781207605       -1.2252057812       -3.8059189912
 H         -1.2859269385        2.2096148556       -1.6232870187
 H         -1.3740030217       -2.6540096328        1.0744054983
 C         -0.4181132468        0.5274202076        1.4152121507
 H         -1.0666997084        1.3371100824        1.7468771501
 H         -0.4512924358       -0.3187700377        2.1004234750
 C          0.9318351607        0.9631712429        1.1112691717
 C          1.9580227513        0.0885824217        1.2849565893
 H          1.7091516207       -0.8776489157        1.7079578967
 C          1.1200308681        2.3916181568        0.6929057023
 H          2.1006246388        2.7571640849        0.9845703824
 H          1.0167587072        2.4945691244       -0.3865129166
 H          0.3564321923        3.0159032544        1.1503318807
 C          3.3703301391        0.2696030731        1.0226970959
 C          4.2917598061       -0.4430556983        1.8018304959
 C          3.8654660778        1.0750607559       -0.0080073455
 C          5.6499363421       -0.3191909314        1.5906476500
 H          3.9255024960       -1.0852586014        2.5899768971
 C          5.2262432435        1.1834465389       -0.2268523855
 H          3.1799749816        1.5801563652       -0.6676930214
 C          6.1249141104        0.4999633904        0.5768192973
 H          6.3436333816       -0.8667232151        2.2121168204
 H          5.5892321765        1.8040574877       -1.0334160774
 H          7.1872712581        0.5941287747        0.4072093784

-H -C -N -O -S -Br -F -Cl 0
6-31G(d)
****
-Co 0
lanl2dz
****

-Co 0
lanl2dz

