%nproc=16
%mem=60GB
# B3LYP/genecp em=GD3BJ int=fine
scrf=(smd,solvent=acetone)

Template

0 1
 Co        -1.0561104320       -0.6438590772       -0.5728285073
 N         -0.7708288310        1.1866397262       -0.2261785702
 O          0.0722260614        2.0125682922       -0.9068833246
 C         -1.4862688846        1.6762659227        0.7337425335
 C         -1.4522932785        3.1055577587        1.1547961527
 H         -0.6973204558        3.6358371729        0.5805703166
 H         -1.2191644129        3.1763647148        2.2146960191
 H         -2.4236210786        3.5692424644        0.9905987880
 N         -2.1919282000       -0.5084930320        0.9208904221
 O         -2.8633814137       -1.5027349482        1.4146426685
 C         -2.3237339521        0.7013923488        1.3893989262
 C         -3.2385672805        1.0530956816        2.5187904618
 H         -3.9555429962        1.8126630203        2.2126720890
 H         -2.6720854089        1.4359254467        3.3658488262
 H         -3.7737205715        0.1560074647        2.8238054057
 N         -1.5734190260       -2.3727463238       -1.0843419445
 O         -2.3274037952       -3.2377294245       -0.3478146653
 C         -1.1832520392       -2.7340127715       -2.2643156416
 C         -1.5223300686       -4.0446759720       -2.8877917686
 H         -1.9039354401       -3.8985398345       -3.8955037715
 H         -2.2651230804       -4.5559241519       -2.2810012460
 H         -0.6289286081       -4.6641029690       -2.9489272777
 N         -0.1346532990       -0.6852585155       -2.2226113849
 O          0.6126164246        0.2777341779       -2.6662825914
 C         -0.3519577122       -1.7594442457       -2.9285983596
 C          0.2249680192       -1.9840178065       -4.2898190120
 H          0.8618982370       -1.1376454166       -4.5389184969
 H         -0.5640360450       -2.0659510294       -5.0359078862
 H          0.8151927249       -2.8979209826       -4.3098620769
 H          0.4173270724        1.4237918888       -1.6878401505
 H         -2.6268577095       -2.6776076450        0.4723919724
 C          0.4975906343       -1.4078056008        0.4828861140
 H          0.0308904807       -2.1612445767        1.1165564542
 H          1.1196398838       -1.8580630574       -0.2904590704
 C          1.1974699314       -0.3902349665        1.2441832510
 C          2.1746771093        0.3399095755        0.6463553261
 H          2.3268821799        0.1768683738       -0.4135423329
 C          0.7841796661       -0.2096512084        2.6769493963
 H         -0.2634807946       -0.4704268284        2.7969321096
 H          1.3627373507       -0.8763047037        3.3155684691
 H          0.9411112795        0.8126692378        3.0090542443
 C          3.0016133988        1.3881412851        1.2102569216
 C          3.3819789549        2.4486822718        0.3781218864
 C          3.4683630835        1.3849458305        2.5279890887
 C          4.1538840285        3.4871075949        0.8585159248
 H          3.0378445729        2.4594279055       -0.6452400725
 C          4.2572591953        2.4180835866        2.9995858267
 H          3.2514418749        0.5492534078        3.1724120933
 C          4.5932613182        3.4789447948        2.1742014305
 H          4.4222507784        4.3043719397        0.2046504189
 H          4.6156560920        2.3942839077        4.0186843300
 H          5.2033878721        4.2877426858        2.5486168374

-H -C -N -O -S -Br -F -Cl 0
6-31G(d)
****
-Co 0
lanl2dz
****

-Co 0
lanl2dz

