%nproc=16
%mem=60GB
# B3LYP/genecp em=GD3BJ int=fine
scrf=(smd,solvent=acetone)

Template

0 1
 Co        -1.0234694062       -0.5089272842       -0.7804949863
 N         -1.0305812443        1.3369819377       -0.4246012621
 O         -0.9026787107        2.3369982325       -1.3466017360
 C         -1.2038502665        1.6538251670        0.8177919014
 C         -1.3041243734        3.0542607192        1.3183205845
 H         -2.2856382239        3.2234541526        1.7581705131
 H         -1.1550804322        3.7494418162        0.4964127784
 H         -0.5558279888        3.2272888689        2.0884856022
 N         -1.1558651339       -0.6293209448        1.1023905632
 O         -1.2233175781       -1.7456051368        1.7593769015
 C         -1.2844968640        0.5198387036        1.7037937266
 C         -1.4717543205        0.6615915182        3.1800524726
 H         -1.5431435977       -0.3324599921        3.6166631807
 H         -2.3775851068        1.2206904119        3.4067128753
 H         -0.6232184702        1.1830996229        3.6203366893
 N         -1.2718129962       -2.3395032122       -1.1172344728
 O         -1.2203569546       -3.3429186891       -0.1942184219
 C         -1.5263045800       -2.6380089028       -2.3512012238
 C         -1.7890188503       -4.0227974239       -2.8351434263
 H         -0.9520199615       -4.3641557285       -3.4423238141
 H         -2.6857565821       -4.0464538333       -3.4496084120
 H         -1.9039745090       -4.6909055713       -1.9853958922
 N         -1.2148439305       -0.3777444868       -2.6494009500
 O         -1.1475581006        0.7371175980       -3.3031545390
 C         -1.5077572372       -1.5025141134       -3.2401743291
 C         -1.7781119292       -1.6180645718       -4.7062138347
 H         -1.6341921811       -0.6402934682       -5.1613464362
 H         -2.8006370327       -1.9462578757       -4.8872638967
 H         -1.0989774544       -2.3334419372       -5.1652259491
 H         -0.9540317025        1.8484149259       -2.2546071978
 H         -1.2059446880       -2.8425713491        0.7184329337
 C          0.9951756769       -0.5782238080       -0.9919084850
 H          1.1763505615       -1.5901337589       -1.3531896764
 H          1.1868023400        0.1663123548       -1.7640816639
 C          1.7028499984       -0.2995113146        0.2443885164
 C          2.0868450265        0.9770264403        0.5103330480
 H          1.7661887153        1.7304967883       -0.1996064910
 C          1.9806079095       -1.4693201542        1.1421349286
 H          2.9622426355       -1.8870843563        0.9205665258
 H          1.9489296276       -1.1813767420        2.1893634940
 H          1.2427360914       -2.2487728644        0.9764116590
 C          2.8186542778        1.5198729955        1.6348437614
 C          3.7314441644        0.8005639681        2.4133950191
 C          2.6222170967        2.8736658491        1.9447335521
 C          4.3801425361        1.4001168666        3.4773546617
 H          3.9690183774       -0.2186494425        2.1629353895
 C          3.2595281318        3.4646051760        3.0160416369
 H          1.9464672801        3.4558558265        1.3347466222
 C          4.1387721176        2.7267837588        3.7951091469
 H          5.0848764907        0.8269728245        4.0623909911
 H          3.0796206892        4.5056174377        3.2427621922
 H          4.6424679603        3.1873124463        4.6319964647

-H -C -N -O -S -Br -F -Cl 0
6-31G(d)
****
-Co 0
lanl2dz
****

-Co 0
lanl2dz

