%nproc=16
%mem=60GB
# B3LYP/genecp em=GD3BJ int=fine
scrf=(smd,solvent=acetone)

Template

0 1
 Co        -1.0308874195       -0.4041585440       -0.8061670434
 N         -1.4127404841        1.3945463945       -0.4094696032
 O         -1.5835182976        2.4009211906       -1.3184254507
 C         -1.5141924610        1.6711351271        0.8506345276
 C         -1.8260322878        3.0277519874        1.3831164043
 H         -2.0898176587        3.6912558531        0.5635660284
 H         -0.9539934519        3.4270638836        1.8987712606
 H         -2.6464169461        2.9764111196        2.0952623249
 N         -0.9286655875       -0.5416686183        1.0853340122
 O         -0.6508415142       -1.6360570295        1.7259959416
 C         -1.2609851384        0.5482509802        1.7184088519
 C         -1.3438179574        0.6479725868        3.2079274113
 H         -1.0482005937       -0.3074270023        3.6361815537
 H         -2.3604471797        0.8785979925        3.5236240624
 H         -0.6816963992        1.4284059232        3.5771831859
 N         -0.8919633825       -2.2419344850       -1.1504105528
 O         -0.5298334492       -3.2060653639       -0.2569560659
 C         -1.1944191179       -2.5941116569       -2.3593213368
 C         -1.1800786443       -4.0037352864       -2.8434409164
 H         -2.1154087082       -4.2425427187       -3.3440248005
 H         -1.0279484903       -4.6765229769       -2.0034333931
 H         -0.3691756284       -4.1388994449       -3.5574294378
 N         -1.4525890448       -0.3243515735       -2.6353557987
 O         -1.7282443154        0.7727690455       -3.2620671070
 C         -1.5346142277       -1.4877191783       -3.2189060802
 C         -1.9304877500       -1.6662869021       -4.6497208934
 H         -2.8642460518       -2.2214607497       -4.7269331094
 H         -1.1605408375       -2.2079343614       -5.1951473522
 H         -2.0654125759       -0.6830703263       -5.0956711986
 H         -1.6477086814        1.9096005364       -2.2236015984
 H         -0.5155013023       -2.7112624489        0.6532876329
 C          0.9025840151       -0.0152871496       -1.2621856823
 H          1.1787575838       -0.7937414683       -1.9720980230
 H          0.8516100797        0.9608017486       -1.7432849836
 C          1.7144815843       -0.0252562946       -0.0608463993
 C          1.9561689144        1.1490176568        0.5817483319
 H          1.5622559045        2.0448844224        0.1157186436
 C          2.2995574940       -1.3391952510        0.3647381236
 H          2.3715887596       -2.0117440493       -0.4858881306
 H          3.2872817777       -1.2015354538        0.7968580542
 H          1.6602433607       -1.8172211214        1.1054482307
 C          2.7194298198        1.4012372375        1.7850953200
 C          2.8624572030        0.4774129832        2.8261957392
 C          3.3141140211        2.6616106944        1.9407008928
 C          3.5949379973        0.7936144572        3.9551668384
 H          2.3595673114       -0.4727837294        2.7742424755
 C          4.0568868169        2.9676560525        3.0625762047
 H          3.1989217841        3.3959358723        1.1560863716
 C          4.2068546842        2.0310671923        4.0749440549
 H          3.6869352076        0.0681835952        4.7506353475
 H          4.5176043494        3.9405859066        3.1546395755
 H          4.7854345177        2.2694752784        4.9551166441

-H -C -N -O -S -Br -F -Cl 0
6-31G(d)
****
-Co 0
lanl2dz
****

-Co 0
lanl2dz

