%nproc=16
%mem=60GB
# B3LYP/genecp em=GD3BJ int=fine
scrf=(smd,solvent=acetone)

Template

0 1
 Co        -1.0018569191       -0.4499037082       -0.8054625314
 N         -1.1957375437        1.3885164352       -0.4524937209
 O         -1.2246415338        2.3886117618       -1.3830771007
 C         -1.3158714972        1.6987681521        0.7980123090
 C         -1.5010199644        3.0903594194        1.2979257957
 H         -2.3552071361        3.1414630124        1.9693212037
 H         -1.6514393914        3.7641711108        0.4584588635
 H         -0.6161638706        3.4011864731        1.8510920738
 N         -0.9798936569       -0.5589448778        1.0873798533
 O         -0.8357953083       -1.6628824159        1.7562075306
 C         -1.2145433228        0.5720661820        1.6913734648
 C         -1.3304974980        0.7079592175        3.1757075072
 H         -0.5719606476        1.3890468589        3.5566035282
 H         -1.1916625333       -0.2729643829        3.6256129528
 H         -2.3111002340        1.0910208340        3.4539388306
 N         -1.0582029929       -2.2984032760       -1.1136376195
 O         -0.8241302725       -3.2785719588       -0.1949464955
 C         -1.3739254411       -2.6388316059       -2.3225802651
 C         -1.5154319832       -4.0503711491       -2.7796157128
 H         -1.4795516327       -4.7171851396       -1.9219700079
 H         -0.7002537456       -4.3008561259       -3.4567132824
 H         -2.4530076763       -4.1838029878       -3.3139391709
 N         -1.3505313655       -0.3615454322       -2.6490606893
 O         -1.4690623892        0.7465296936       -3.3055472901
 C         -1.5577420056       -1.5191979215       -3.2123830947
 C         -1.9312468497       -1.6803964476       -4.6512303251
 H         -1.9297082207       -0.6984198830       -5.1198217191
 H         -2.9243476164       -2.1170079801       -4.7473453003
 H         -1.2192414784       -2.3255004125       -5.1616140819
 H         -1.3042574648        1.8890555945       -2.2823479098
 H         -0.7762783223       -2.7714863973        0.7070280234
 C          0.9782621656       -0.2886362399       -1.1951784973
 H          1.2217916613       -1.1892661555       -1.7571082149
 H          1.0317607381        0.6004467505       -1.8223557395
 C          1.7263385262       -0.1646418672        0.0411799931
 C          2.0155663769        1.0775277590        0.5125361216
 H          1.7209554219        1.9150886356       -0.1089719357
 C          2.2009139269       -1.4302844310        0.6920122866
 H          2.3461905784       -2.2033186280       -0.0583421207
 H          3.1348613568       -1.2680561574        1.2230459384
 H          1.4591191846       -1.8003162268        1.3985642948
 C          2.7088032173        1.4592382745        1.7246843806
 C          2.6597079733        0.7151709626        2.9081707858
 C          3.4212652948        2.6661727019        1.7354775289
 C          3.3213095183        1.1485438536        4.0420205967
 H          2.0628715078       -0.1800788444        2.9528053410
 C          4.0938420860        3.0868845131        2.8647232542
 H          3.4538548127        3.2636236138        0.8355627384
 C          4.0515382992        2.3262652513        4.0240988322
 H          3.2643734277        0.5639398715        4.9489104620
 H          4.6488674623        4.0136484183        2.8469643475
 H          4.5736952597        2.6562782551        4.9099338305

-H -C -N -O -S -Br -F -Cl 0
6-31G(d)
****
-Co 0
lanl2dz
****

-Co 0
lanl2dz

