%nproc=16
%mem=60GB
# B3LYP/genecp em=GD3BJ int=fine
scrf=(smd,solvent=acetone)

Template

0 1
 Co        -1.0579665694       -0.6444664557       -0.5525514957
 N         -0.8249651562        1.1883741199       -0.1808560237
 O         -0.0065310997        2.0533387983       -0.8448019032
 C         -1.5739213674        1.6454811277        0.7707825802
 C         -1.6112045034        3.0784738792        1.1835234106
 H         -1.5520576243        3.1661759235        2.2653962885
 H         -2.5463363700        3.5336020357        0.8590844630
 H         -0.7829484661        3.6099289237        0.7215381144
 N         -2.1955911319       -0.5660878292        0.9419799018
 O         -2.8338847034       -1.5868226116        1.4219897360
 C         -2.3763267562        0.6350391682        1.4167696847
 C         -3.3149666507        0.9425049537        2.5402021944
 H         -2.7684070735        1.2777996575        3.4204188835
 H         -3.8606342669        0.0352322661        2.7913884603
 H         -4.0187522012        1.7213445660        2.2535018540
 N         -1.5406881589       -2.3722988225       -1.1001281756
 O         -2.2737258366       -3.2701449678       -0.3814401139
 C         -1.1515058050       -2.6962330567       -2.2913808359
 C         -1.4725698699       -3.9968920124       -2.9449806718
 H         -1.8466524875       -3.8338366570       -3.9528181167
 H         -2.2153008273       -4.5276796232       -2.3550015026
 H         -0.5729353521       -4.6069144330       -3.0101785235
 N         -0.1364397570       -0.6314311831       -2.2036196960
 O          0.5942742103        0.3526913045       -2.6248457643
 C         -0.3399814884       -1.6920540207       -2.9348485346
 C          0.2345509456       -1.8741620739       -4.3036564752
 H         -0.5563362874       -1.9420957777       -5.0493101843
 H          0.8326248390       -2.7819002189       -4.3513152916
 H          0.8625788278       -1.0151214997       -4.5311734303
 H          0.3798202311        1.4880546566       -1.6206293501
 H         -2.5787997011       -2.7361088648        0.4539093325
 C          0.5019219338       -1.3979058624        0.4937969247
 H          0.0470214826       -2.1669955479        1.1163662919
 H          1.1303031284       -1.8291829506       -0.2848002392
 C          1.1696242291       -0.3607497637        1.2542268086
 C          2.1904731918        0.3259958288        0.6721021555
 H          2.4604405056        0.0220536333       -0.3321018660
 C          0.7327291876       -0.1567631167        2.6766955614
 H          1.5898971895        0.0483901809        3.3130651560
 H          0.0355428652        0.6754907710        2.7533844906
 H          0.2225142473       -1.0442235525        3.0421805689
 C          3.0171221171        1.3907596959        1.1957502929
 C          4.2942599466        1.5607760243        0.6412468292
 C          2.6151992453        2.2879225983        2.1909261462
 C          5.1441937383        2.5502193843        1.0903945203
 H          4.6177132637        0.8920044439       -0.1434373629
 C          3.4634802358        3.2880922610        2.6276495416
 H          1.6209306606        2.2314764375        2.5972727367
 C          4.7344297018        3.4182337131        2.0918459210
 H          6.1280179021        2.6534244955        0.6558604331
 H          3.1294697186        3.9752038404        3.3917173296
 H          5.3962164913        4.1967053639        2.4416348423

-H -C -N -O -S -Br -F -Cl 0
6-31G(d)
****
-Co 0
lanl2dz
****

-Co 0
lanl2dz

