%nproc=16
%mem=60GB
# B3LYP/genecp em=GD3BJ int=fine
scrf=(smd,solvent=acetone)

Template

0 1
 Co        -1.2421587546       -0.0506130305       -0.5599710129
 N         -2.7933520603        1.0028773007       -0.4793004659
 O         -3.2776002543        1.8024994692       -1.4717912657
 C         -3.4549486937        0.9151379587        0.6296398983
 C         -4.7365867551        1.6292295999        0.8929378331
 H         -5.0967783723        2.0830318455       -0.0266000891
 H         -4.5756444561        2.4110810842        1.6334799743
 H         -5.4822391401        0.9405075032        1.2829002292
 N         -1.6931788997       -0.4400603223        1.2318482859
 O         -0.9907682370       -1.1980865091        2.0148901879
 C         -2.8239573704        0.0788573176        1.6217925366
 C         -3.4091286786       -0.1441605550        2.9798940573
 H         -3.5588607114        0.8035934871        3.4931325760
 H         -2.7215852977       -0.7610858137        3.5550042179
 H         -4.3687690830       -0.6539078105        2.9090848768
 N          0.1243200634       -1.3375182839       -0.7117849046
 O          0.6678350817       -2.0601768947        0.3076868229
 C          0.5236393557       -1.5655157030       -1.9211936625
 C          1.5507510277       -2.5829838450       -2.2839186625
 H          1.9570317993       -3.0277992381       -1.3794629893
 H          2.3515361950       -2.1186904311       -2.8547348070
 H          1.1049002244       -3.3623376116       -2.8999641476
 N         -0.9577635774        0.1280976157       -2.4136109324
 O         -1.5982882460        0.9649745038       -3.1699629825
 C         -0.1070923455       -0.7259430268       -2.9110924650
 C          0.2080172404       -0.8212745143       -4.3699795830
 H          0.0005748680       -1.8218736823       -4.7448619784
 H          1.2573203289       -0.5961851078       -4.5526651866
 H         -0.4090479352       -0.1020749178       -4.9049553594
 H         -2.6599045514        1.6042365065       -2.2807168380
 H          0.1009770205       -1.7906555769        1.1316125586
 C         -0.1087556724        1.5579877949       -0.0738603056
 H         -0.2635259439        2.2391036579       -0.9099664929
 H         -0.5760992699        1.9276337327        0.8386553816
 C          1.2837263789        1.1998069819        0.1152072064
 C          1.6993232144        0.7651711913        1.3342337033
 H          0.9314661943        0.6209305734        2.0841738271
 C          2.1894654253        1.3371433880       -1.0749929102
 H          1.6187909891        1.2037126594       -1.9900586887
 H          2.6224105189        2.3365914364       -1.0994438022
 H          2.9941375686        0.6079767936       -1.0438534054
 C          3.0243568695        0.3856028702        1.7768163987
 C          3.1259601822       -0.5843648641        2.7832982320
 C          4.2058391218        0.9570943205        1.2940818506
 C          4.3560563733       -1.0018844864        3.2484527030
 H          2.2218252309       -1.0224684736        3.1795613935
 C          5.4357125559        0.5482602581        1.7758883484
 H          4.1620906677        1.7558178140        0.5729201175
 C          5.5194660763       -0.4398003609        2.7435121060
 H          4.4117927251       -1.7626644020        4.0136950719
 H          6.3373024074        1.0072686094        1.3963529584
 H          6.4827149507       -0.7607105326        3.1119631046

-H -C -N -O -S -Br -F -Cl 0
6-31G(d)
****
-Co 0
lanl2dz
****

-Co 0
lanl2dz

