%nproc=16
%mem=60GB
# B3LYP/genecp em=GD3BJ int=fine
scrf=(smd,solvent=acetone)

Template

0 1
 Co        -1.2402134903       -0.5388751932       -0.3457448878
 N         -1.5198980308        1.3072377478       -0.2191339796
 O         -0.6983946002        2.2813217988       -0.7061441128
 C         -2.6179065248        1.6580587535        0.3705937177
 C         -3.0539328225        3.0727525640        0.5455631691
 H         -2.4126262808        3.7278217655       -0.0385362271
 H         -2.9835154503        3.3518761111        1.5957075438
 H         -4.0880527006        3.1927358742        0.2317706110
 N         -2.8449786434       -0.6141491919        0.6462172309
 O         -3.4102026297       -1.7150929739        1.0297032626
 C         -3.3920316918        0.5482382613        0.8690516141
 C         -4.6920252399        0.7251509229        1.5865078534
 H         -4.5709704104        1.3873873313        2.4411654415
 H         -5.0323610097       -0.2498953139        1.9293904129
 H         -5.4455305874        1.1493705522        0.9243107417
 N         -1.1244564982       -2.3867817923       -0.7027769265
 O         -1.8744693458       -3.3705153489       -0.1251344252
 C         -0.2344749274       -2.7169886983       -1.5824636393
 C          0.0152233837       -4.1174094309       -2.0291617178
 H          0.0091021370       -4.1753883078       -3.1150979021
 H         -0.7490741765       -4.7729403021       -1.6198229861
 H          0.9910446436       -4.4480740487       -1.6769140050
 N          0.1907069358       -0.4517714834       -1.5773876369
 O          0.7586558625        0.6478568799       -1.9600281435
 C          0.5210941010       -1.6013662232       -2.0970946121
 C          1.5901966789       -1.7586089796       -3.1311435546
 H          2.0818559417       -0.7970715814       -3.2653505135
 H          1.1661725114       -2.0741412463       -4.0836674142
 H          2.3220389944       -2.4996120225       -2.8169644448
 H          0.0097481682        1.7588101773       -1.2608363571
 H         -2.5720947720       -2.8548569527        0.4384606739
 C         -0.0832127159       -0.7106490386        1.3223418904
 H         -0.8087628451       -0.7009416627        2.1340556738
 H          0.3583207168       -1.6985607584        1.1976117973
 C          0.9124129745        0.3368009066        1.4350652038
 C          2.1507133713        0.1233903852        0.9140268063
 H          2.3235280698       -0.8487915545        0.4672089399
 C          0.5455961604        1.5711092515        2.2077639427
 H          1.3954135527        1.9215256578        2.7881093393
 H          0.2358488947        2.3711144452        1.5390870466
 H         -0.2809120345        1.3572279423        2.8808789355
 C          3.3180567179        0.9777359296        0.9122915823
 C          3.2701950605        2.3756762788        0.9181250664
 C          4.5790505081        0.3658089871        0.8645900812
 C          4.4340264888        3.1217189887        0.9071753561
 H          2.3218028032        2.8823937662        0.8836478072
 C          5.7382478252        1.1138058669        0.8695484219
 H          4.6382628770       -0.7131742611        0.8406295379
 C          5.6717212699        2.4990906414        0.8966030380
 H          4.3750819428        4.2005803644        0.9032839281
 H          6.6988118728        0.6195488312        0.8456763785
 H          6.5776813737        3.0870692802        0.8960427581

-H -C -N -O -S -Br -F -Cl 0
6-31G(d)
****
-Co 0
lanl2dz
****

-Co 0
lanl2dz

